computational_data/solutions/ER_n30_p020_s0.sol
Optimal - objective value 11.00000000
      1 r_1                         1                       1
     11 r_11                        1                       1
     17 r_17                        1                       1
     20 r_20                        1                       1
     27 r_27                        1                       1
     30 b_0                         1                       1
     37 b_7                         1                       1
     38 b_8                         1                       1
     40 b_10                        1                       1
     46 b_16                        1                       1
     54 b_24                        1                       1
